c A SAT instance generated from a 3-CNF formula that had 24 clauses and 8 variables
p cnf 8 24
-5 4 -3 0
-1 -5 2 0
5 -8 3 0
-7 5 -3 0
4 3 2 0
7 -6 -1 0
-1 -7 -2 0
-2 6 -1 0
8 7 -2 0
1 -6 -3 0
1 -6 5 0
-5 7 -4 0
-4 -1 2 0
1 -8 3 0
1 3 -4 0
1 -7 8 0
-6 -5 8 0
-3 -1 -2 0
2 8 -5 0
4 1 -5 0
-6 -3 -8 0
-2 -4 -1 0
8 5 -1 0
6 -5 -1 0
